
n_res = 8;
rcap = [79, 86, 91, 72, 649, 705, 671, 713];
rtype = [1, 1, 1, 1, 2, 2, 2, 2];
n_tasks = 50;
modes =  [{1, 2, 3, 4, 5, 6}, {7, 8, 9, 10, 11, 12}, {13, 14, 15, 16, 17, 18}, {19, 20, 21, 22, 23, 24}, {25, 26, 27, 28, 29, 30}, {31, 32, 33, 34, 35, 36}, {37, 38, 39, 40, 41, 42}, {43, 44, 45, 46, 47, 48}, {49, 50, 51, 52, 53, 54}, {55, 56, 57, 58, 59, 60}, {61, 62, 63, 64, 65, 66}, {67, 68, 69, 70, 71, 72}, {73, 74, 75, 76, 77, 78}, {79, 80, 81, 82, 83, 84}, {85, 86, 87, 88, 89, 90}, {91, 92, 93, 94, 95, 96}, {97, 98, 99, 100, 101, 102}, {103, 104, 105, 106, 107, 108}, {109, 110, 111, 112, 113, 114}, {115, 116, 117, 118, 119, 120}, {121, 122, 123, 124, 125, 126}, {127, 128, 129, 130, 131, 132}, {133, 134, 135, 136, 137, 138}, {139, 140, 141, 142, 143, 144}, {145, 146, 147, 148, 149, 150}, {151, 152, 153, 154, 155, 156}, {157, 158, 159, 160, 161, 162}, {163, 164, 165, 166, 167, 168}, {169, 170, 171, 172, 173, 174}, {175, 176, 177, 178, 179, 180}, {181, 182, 183, 184, 185, 186}, {187, 188, 189, 190, 191, 192}, {193, 194, 195, 196, 197, 198}, {199, 200, 201, 202, 203, 204}, {205, 206, 207, 208, 209, 210}, {211, 212, 213, 214, 215, 216}, {217, 218, 219, 220, 221, 222}, {223, 224, 225, 226, 227, 228}, {229, 230, 231, 232, 233, 234}, {235, 236, 237, 238, 239, 240}, {241, 242, 243, 244, 245, 246}, {247, 248, 249, 250, 251, 252}, {253, 254, 255, 256, 257, 258}, {259, 260, 261, 262, 263, 264}, {265, 266, 267, 268, 269, 270}, {271, 272, 273, 274, 275, 276}, {277, 278, 279, 280, 281, 282}, {283, 284, 285, 286, 287, 288}, {289, 290, 291, 292, 293, 294}, {295, 296, 297, 298, 299, 300}];
succ =  [{28, 25, 22, 20, 18, 16, 7}, {33, 31, 22, 18, 10}, {27, 23, 22, 19, 13}, {22, 16, 15, 13}, {25, 24, 22, 18, 16}, {30, 19, 18, 15}, {37, 33, 30, 24, 15}, {37, 25, 15}, {50, 37, 36, 33, 31, 27, 26, 24, 22}, {35, 30, 27, 26, 24, 23, 20}, {42, 37, 35, 32, 29, 26, 25, 23}, {33, 32, 31, 30, 29, 27, 26, 23}, {37, 35, 31, 30, 28, 20}, {50, 33, 26, 24, 21}, {42, 39, 35, 32, 31, 29, 27, 26, 23}, {50, 42, 32, 31, 30, 27, 26}, {50, 35, 34, 33, 32, 29, 27}, {42, 41, 39, 37, 36, 27, 26}, {49, 35, 33, 29, 26}, {50, 49, 42, 34, 32, 29}, {49, 48, 35, 32, 31}, {47, 42, 40, 35, 30}, {50, 49, 44, 41, 40, 38, 36}, {49, 47, 39, 38, 29}, {49, 47, 40, 38, 30}, {47, 40, 34}, {49, 48, 45, 44, 38}, {39, 38}, {46, 44, 41, 40}, {48, 43, 39}, {41, 40, 38}, {44, 36}, {42, 39}, {48, 46, 45, 44}, {41, 38}, {47, 45, 43}, {38}, {46, 43}, {45, 44}, {43}, {43}, {43}, {}, {}, {}, {}, {}, {}, {}, {}];
n_opt = 300;
dur = [3, 4, 6, 10, 18, 25, 3, 9, 13, 16, 17, 26, 4, 9, 10, 19, 20, 24, 2, 5, 7, 10, 15, 16, 3, 4, 6, 8, 11, 26, 7, 14, 16, 20, 21, 24, 4, 8, 10, 12, 14, 23, 4, 6, 12, 14, 20, 25, 5, 6, 7, 26, 27, 30, 12, 16, 21, 24, 26, 28, 10, 12, 13, 20, 22, 23, 2, 7, 13, 15, 23, 26, 8, 9, 16, 17, 22, 30, 3, 5, 10, 13, 25, 30, 2, 9, 11, 13, 14, 15, 9, 13, 16, 17, 27, 28, 6, 13, 19, 24, 27, 30, 3, 4, 11, 15, 21, 28, 3, 4, 5, 7, 8, 21, 9, 15, 18, 20, 25, 28, 3, 9, 10, 12, 24, 25, 1, 12, 17, 24, 25, 28, 6, 15, 16, 21, 24, 29, 8, 16, 18, 19, 25, 26, 10, 11, 12, 13, 26, 27, 1, 2, 6, 8, 14, 17, 9, 12, 18, 22, 28, 29, 4, 9, 13, 14, 28, 30, 4, 5, 6, 21, 28, 29, 1, 7, 22, 23, 24, 27, 4, 7, 25, 26, 27, 30, 3, 6, 7, 15, 16, 30, 2, 4, 12, 13, 20, 27, 3, 24, 25, 26, 29, 30, 1, 11, 13, 14, 15, 23, 7, 13, 15, 22, 27, 28, 2, 14, 23, 27, 29, 30, 7, 12, 14, 18, 21, 29, 4, 17, 20, 21, 25, 27, 1, 2, 7, 21, 22, 23, 6, 10, 11, 17, 18, 23, 9, 12, 13, 17, 21, 30, 2, 6, 15, 17, 23, 29, 7, 8, 9, 14, 21, 27, 5, 6, 11, 14, 16, 18, 2, 9, 13, 16, 22, 24, 2, 4, 7, 10, 14, 23, 4, 6, 7, 8, 20, 30, 1, 2, 3, 8, 11, 19, 3, 21, 24, 28, 29, 30];
rreq = [|6, 5, 4, 4, 3, 3, 29, 29, 29, 29, 29, 29, 15, 14, 13, 12, 11, 10, 22, 21, 21, 21, 19, 19, 27, 26, 24, 23, 22, 22, 19, 18, 17, 17, 15, 15, 14, 12, 9, 7, 7, 4, 13, 11, 9, 8, 5, 1, 24, 22, 17, 14, 13, 11, 29, 29, 29, 29, 29, 29, 16, 15, 11, 10, 7, 5, 27, 22, 16, 13, 13, 6, 13, 10, 10, 8, 7, 6, 17, 14, 14, 10, 8, 3, 28, 27, 27, 25, 23, 22, 30, 28, 28, 26, 25, 25, 13, 12, 12, 10, 10, 9, 13, 10, 9, 6, 4, 1, 18, 18, 17, 17, 16, 16, 28, 25, 23, 20, 18, 16, 24, 23, 23, 21, 19, 19, 9, 6, 6, 4, 3, 1, 12, 10, 10, 9, 7, 6, 4, 4, 3, 3, 3, 2, 27, 20, 20, 14, 10, 4, 24, 23, 21, 18, 16, 11, 20, 19, 19, 16, 15, 13, 9, 7, 7, 7, 5, 5, 13, 13, 12, 12, 12, 11, 13, 13, 12, 11, 9, 9, 20, 19, 19, 19, 18, 18, 20, 19, 19, 19, 18, 18, 22, 21, 20, 19, 19, 18, 18, 16, 14, 12, 8, 6, 24, 22, 16, 11, 9, 6, 26, 20, 20, 15, 13, 10, 29, 27, 25, 23, 23, 21, 20, 19, 16, 13, 8, 5, 19, 19, 17, 17, 16, 15, 27, 25, 24, 19, 17, 17, 28, 23, 21, 15, 14, 9, 17, 17, 17, 17, 17, 17, 24, 23, 22, 18, 18, 15, 15, 12, 10, 8, 6, 5, 6, 5, 5, 3, 3, 1, 27, 21, 19, 14, 9, 6, 28, 24, 21, 19, 18, 14, 6, 6, 6, 6, 6, 6, 8, 6, 6, 6, 4, 4, 25, 25, 24, 22, 20, 19
 |29, 29, 29, 29, 29, 29, 23, 23, 22, 20, 19, 16, 21, 19, 12, 8, 6, 3, 7, 7, 6, 6, 5, 4, 23, 23, 21, 21, 20, 18, 26, 25, 21, 18, 16, 12, 23, 21, 17, 14, 7, 5, 26, 25, 25, 25, 23, 23, 9, 8, 8, 7, 7, 7, 16, 16, 16, 16, 16, 16, 23, 22, 16, 15, 13, 10, 22, 20, 18, 13, 10, 7, 23, 20, 16, 11, 9, 7, 21, 18, 14, 11, 8, 2, 28, 28, 26, 26, 24, 24, 18, 18, 18, 18, 18, 18, 25, 24, 23, 23, 21, 19, 14, 14, 14, 13, 12, 12, 23, 19, 16, 16, 12, 7, 28, 21, 20, 15, 10, 10, 15, 11, 9, 7, 7, 4, 18, 16, 14, 13, 11, 10, 21, 18, 16, 11, 10, 6, 30, 27, 26, 25, 23, 22, 26, 25, 23, 20, 19, 15, 24, 21, 19, 18, 15, 15, 23, 23, 23, 23, 23, 23, 11, 8, 7, 6, 4, 3, 23, 20, 19, 17, 14, 14, 10, 9, 9, 6, 6, 4, 18, 17, 17, 15, 15, 14, 17, 15, 14, 11, 7, 6, 5, 5, 5, 5, 5, 5, 27, 20, 15, 13, 11, 5, 19, 17, 15, 13, 9, 6, 26, 26, 24, 21, 19, 17, 14, 11, 10, 8, 4, 4, 29, 24, 17, 13, 9, 8, 29, 24, 21, 21, 17, 13, 17, 12, 11, 7, 3, 1, 27, 23, 21, 16, 14, 12, 2, 2, 2, 2, 2, 2, 20, 20, 14, 10, 6, 4, 22, 22, 22, 21, 21, 21, 9, 8, 7, 6, 6, 5, 16, 15, 14, 13, 12, 12, 21, 18, 14, 13, 11, 7, 18, 15, 12, 10, 8, 7, 22, 22, 21, 19, 17, 17, 21, 21, 18, 18, 16, 14
 |23, 23, 22, 20, 18, 17, 25, 18, 18, 13, 9, 6, 28, 20, 19, 13, 9, 5, 21, 18, 15, 10, 9, 6, 28, 26, 23, 22, 20, 20, 17, 14, 12, 8, 5, 4, 7, 7, 6, 5, 3, 3, 22, 18, 16, 15, 11, 8, 25, 22, 20, 17, 15, 13, 14, 12, 8, 6, 6, 3, 28, 20, 18, 12, 7, 6, 13, 12, 12, 11, 11, 11, 23, 19, 16, 13, 10, 5, 18, 14, 11, 9, 8, 5, 24, 21, 15, 14, 12, 7, 28, 27, 26, 26, 24, 23, 29, 29, 29, 29, 29, 29, 13, 12, 11, 9, 6, 4, 13, 10, 8, 6, 4, 1, 24, 21, 18, 16, 12, 9, 23, 22, 22, 21, 19, 19, 5, 5, 4, 4, 3, 2, 11, 10, 8, 7, 6, 4, 27, 27, 24, 21, 18, 16, 27, 27, 25, 25, 23, 22, 24, 21, 18, 18, 12, 12, 13, 12, 10, 7, 6, 4, 17, 14, 10, 8, 5, 4, 15, 12, 12, 6, 5, 1, 10, 9, 7, 6, 4, 3, 12, 10, 9, 7, 6, 5, 24, 24, 24, 23, 23, 23, 17, 16, 16, 14, 13, 13, 12, 12, 11, 8, 8, 7, 18, 17, 17, 17, 17, 17, 17, 15, 15, 14, 14, 13, 23, 17, 14, 11, 10, 5, 30, 29, 27, 27, 25, 25, 23, 16, 15, 10, 6, 3, 22, 21, 21, 21, 20, 20, 27, 27, 25, 23, 23, 21, 24, 24, 24, 24, 24, 24, 11, 9, 9, 7, 7, 6, 8, 7, 6, 6, 5, 3, 14, 14, 14, 14, 14, 14, 21, 19, 15, 14, 11, 10, 4, 4, 4, 4, 3, 3, 22, 21, 21, 19, 19, 18, 25, 25, 21, 18, 14, 14, 27, 26, 24, 22, 21, 21
 |28, 26, 26, 24, 23, 23, 24, 20, 19, 16, 9, 5, 13, 10, 10, 7, 6, 4, 17, 14, 12, 12, 10, 8, 14, 12, 12, 11, 10, 8, 16, 14, 13, 8, 6, 5, 26, 22, 21, 20, 16, 16, 17, 14, 13, 12, 9, 6, 5, 4, 4, 3, 3, 3, 10, 8, 8, 6, 6, 4, 24, 23, 20, 15, 12, 9, 16, 13, 11, 9, 6, 2, 6, 4, 4, 4, 2, 2, 25, 23, 21, 21, 18, 16, 28, 27, 26, 25, 23, 22, 26, 26, 25, 25, 24, 23, 8, 8, 8, 7, 7, 7, 26, 25, 25, 24, 24, 23, 19, 18, 17, 16, 15, 15, 21, 19, 17, 15, 10, 5, 19, 15, 12, 8, 6, 3, 8, 6, 5, 4, 4, 3, 18, 18, 15, 14, 14, 12, 26, 25, 18, 17, 10, 6, 21, 21, 17, 16, 14, 12, 26, 25, 19, 17, 12, 10, 23, 23, 18, 12, 7, 4, 27, 21, 15, 14, 9, 6, 25, 22, 19, 18, 17, 15, 19, 16, 16, 12, 10, 10, 10, 9, 8, 5, 4, 4, 19, 18, 17, 16, 14, 14, 11, 9, 8, 7, 3, 3, 28, 24, 23, 21, 19, 18, 25, 21, 19, 17, 15, 13, 25, 24, 21, 17, 13, 12, 17, 14, 13, 11, 8, 4, 24, 23, 20, 20, 18, 16, 15, 14, 14, 13, 12, 12, 6, 5, 5, 3, 2, 2, 18, 17, 15, 14, 13, 13, 13, 11, 10, 9, 8, 7, 24, 17, 16, 12, 6, 4, 20, 18, 18, 17, 17, 16, 22, 21, 20, 16, 15, 14, 23, 22, 18, 18, 13, 10, 26, 24, 23, 22, 20, 18, 24, 23, 19, 18, 14, 12, 23, 21, 18, 11, 8, 4, 25, 24, 24, 24, 24, 24
 |3, 2, 2, 1, 1, 1, 18, 14, 13, 11, 10, 8, 23, 23, 23, 23, 23, 23, 18, 18, 16, 14, 12, 10, 21, 16, 14, 12, 9, 3, 9, 9, 8, 8, 6, 6, 21, 18, 14, 11, 9, 5, 22, 21, 19, 16, 10, 9, 16, 16, 14, 14, 12, 12, 21, 16, 16, 14, 10, 8, 14, 13, 12, 12, 10, 8, 25, 23, 21, 19, 17, 15, 26, 24, 22, 21, 20, 18, 21, 18, 16, 11, 7, 6, 14, 13, 13, 11, 11, 10, 22, 22, 19, 15, 15, 10, 13, 11, 11, 11, 9, 9, 22, 22, 21, 19, 19, 18, 23, 17, 13, 12, 7, 3, 19, 19, 18, 17, 16, 16, 27, 27, 25, 25, 24, 23, 12, 12, 12, 12, 12, 12, 12, 12, 12, 12, 12, 12, 15, 13, 11, 9, 9, 7, 21, 18, 16, 15, 14, 13, 30, 28, 27, 24, 23, 22, 9, 7, 7, 6, 5, 4, 25, 21, 19, 18, 15, 13, 27, 27, 26, 26, 26, 25, 29, 29, 29, 29, 29, 29, 17, 16, 16, 15, 13, 13, 24, 21, 17, 11, 6, 2, 19, 16, 15, 11, 10, 9, 27, 22, 17, 14, 11, 7, 12, 9, 8, 7, 4, 2, 28, 27, 26, 26, 25, 25, 18, 18, 17, 16, 14, 13, 11, 10, 10, 8, 8, 7, 26, 23, 19, 15, 11, 9, 27, 24, 22, 21, 19, 15, 13, 12, 8, 6, 6, 4, 30, 27, 24, 23, 20, 17, 30, 28, 26, 25, 21, 20, 20, 20, 14, 8, 4, 4, 12, 10, 8, 7, 6, 4, 28, 20, 20, 16, 6, 4, 25, 24, 17, 16, 11, 7, 12, 11, 10, 8, 8, 7, 15, 13, 10, 10, 8, 6, 7, 7, 7, 7, 7, 7
 |25, 24, 24, 24, 24, 24, 11, 11, 10, 10, 8, 8, 15, 14, 14, 13, 12, 12, 26, 24, 20, 17, 16, 12, 27, 20, 17, 11, 11, 5, 24, 24, 22, 21, 19, 17, 9, 9, 6, 6, 2, 2, 14, 11, 9, 9, 6, 5, 14, 12, 11, 8, 6, 4, 18, 18, 17, 16, 15, 14, 21, 21, 19, 15, 15, 13, 5, 4, 4, 3, 2, 2, 28, 27, 25, 23, 21, 19, 28, 24, 22, 20, 17, 14, 10, 8, 8, 7, 6, 6, 23, 21, 18, 16, 15, 12, 21, 21, 20, 20, 18, 18, 21, 19, 17, 14, 14, 11, 29, 24, 20, 20, 14, 14, 10, 10, 10, 10, 10, 10, 26, 25, 23, 21, 19, 17, 18, 15, 15, 12, 6, 3, 16, 15, 15, 15, 15, 15, 30, 26, 24, 21, 18, 16, 19, 17, 16, 13, 12, 9, 10, 9, 7, 6, 5, 5, 23, 22, 22, 22, 22, 22, 29, 27, 26, 26, 24, 24, 23, 21, 21, 20, 19, 18, 11, 10, 9, 6, 5, 5, 14, 13, 12, 9, 8, 5, 7, 7, 7, 7, 7, 7, 29, 28, 27, 26, 26, 24, 17, 16, 16, 16, 16, 16, 8, 8, 8, 8, 8, 8, 24, 24, 23, 20, 18, 18, 14, 11, 11, 8, 8, 5, 13, 12, 11, 10, 8, 8, 27, 27, 24, 23, 23, 20, 19, 18, 18, 17, 16, 16, 29, 29, 29, 29, 29, 29, 20, 19, 16, 8, 4, 3, 23, 21, 20, 17, 16, 14, 26, 26, 26, 26, 25, 25, 12, 12, 12, 12, 12, 12, 29, 29, 29, 29, 29, 29, 26, 21, 18, 13, 12, 8, 20, 17, 16, 11, 8, 7, 10, 8, 8, 7, 6, 5, 19, 15, 15, 10, 4, 2
 |29, 28, 28, 27, 27, 26, 29, 25, 23, 19, 12, 9, 5, 4, 4, 3, 3, 3, 27, 26, 25, 23, 20, 17, 27, 26, 22, 22, 18, 15, 27, 22, 18, 17, 12, 6, 13, 12, 11, 9, 7, 6, 19, 19, 19, 19, 19, 19, 22, 17, 15, 11, 9, 4, 19, 19, 18, 17, 15, 15, 12, 10, 7, 6, 3, 1, 22, 18, 16, 12, 10, 6, 25, 24, 22, 20, 19, 18, 21, 18, 18, 14, 14, 11, 19, 15, 15, 11, 11, 8, 13, 11, 9, 6, 4, 3, 18, 16, 11, 11, 9, 5, 26, 25, 23, 23, 21, 19, 27, 24, 20, 15, 11, 7, 28, 23, 15, 13, 8, 4, 25, 24, 22, 21, 19, 16, 27, 25, 23, 22, 21, 18, 27, 21, 18, 13, 10, 4, 13, 12, 11, 11, 10, 9, 20, 18, 17, 15, 13, 12, 6, 6, 5, 5, 4, 4, 21, 21, 19, 18, 17, 16, 23, 23, 23, 22, 22, 21, 24, 21, 21, 19, 15, 13, 29, 26, 25, 23, 21, 18, 14, 12, 12, 11, 9, 7, 9, 7, 7, 5, 3, 3, 12, 11, 11, 9, 9, 8, 22, 19, 16, 16, 13, 12, 22, 19, 15, 10, 9, 4, 27, 25, 22, 17, 16, 14, 17, 15, 15, 14, 12, 12, 19, 14, 12, 7, 6, 3, 17, 13, 12, 10, 8, 7, 17, 14, 12, 11, 10, 7, 22, 21, 20, 18, 18, 16, 22, 21, 20, 17, 16, 15, 26, 21, 19, 13, 10, 9, 19, 16, 11, 9, 5, 2, 28, 27, 27, 26, 26, 26, 14, 13, 11, 10, 8, 6, 27, 26, 26, 25, 25, 24, 23, 18, 14, 11, 11, 7, 18, 17, 16, 15, 14, 13, 26, 23, 23, 22, 20, 19
 |22, 18, 18, 11, 8, 5, 27, 26, 23, 22, 20, 20, 11, 10, 10, 10, 10, 10, 12, 12, 12, 11, 11, 11, 8, 7, 7, 6, 6, 6, 18, 17, 16, 14, 12, 10, 26, 23, 21, 19, 16, 16, 15, 12, 11, 10, 10, 8, 13, 12, 12, 11, 11, 10, 15, 13, 12, 9, 8, 5, 23, 21, 20, 17, 17, 13, 26, 26, 25, 23, 21, 21, 27, 27, 27, 27, 27, 27, 20, 19, 18, 17, 16, 16, 21, 18, 15, 12, 7, 5, 24, 22, 16, 13, 12, 9, 20, 20, 20, 20, 20, 20, 24, 23, 18, 16, 10, 8, 14, 14, 12, 11, 11, 10, 10, 8, 8, 7, 6, 5, 20, 17, 17, 16, 12, 12, 21, 21, 18, 14, 14, 10, 17, 16, 15, 14, 11, 10, 29, 29, 29, 29, 29, 29, 13, 11, 8, 7, 6, 4, 18, 17, 13, 11, 11, 9, 22, 19, 18, 13, 12, 9, 18, 15, 13, 9, 7, 4, 16, 16, 16, 15, 15, 15, 22, 21, 21, 18, 17, 16, 26, 22, 21, 18, 11, 8, 22, 21, 20, 18, 17, 16, 30, 29, 29, 29, 29, 29, 28, 27, 26, 26, 25, 23, 2, 2, 2, 2, 1, 1, 25, 17, 15, 10, 9, 4, 21, 20, 19, 19, 17, 17, 25, 24, 23, 22, 22, 21, 25, 24, 24, 23, 22, 22, 27, 26, 26, 26, 26, 26, 6, 6, 6, 6, 6, 6, 24, 19, 15, 13, 9, 7, 20, 19, 16, 14, 14, 10, 28, 27, 27, 26, 25, 25, 7, 7, 5, 4, 4, 3, 9, 8, 8, 7, 7, 7, 17, 16, 16, 15, 13, 13, 17, 14, 14, 13, 10, 9, 25, 21, 19, 16, 13, 10, 18, 18, 18, 17, 17, 16|];